FePc                                    
   1.00000000000000     
    25.0000000000000000    0.0000000000000000    0.0000000000000000
     0.0000000000000000   25.0000000000000000    0.0000000000000000
     0.0000000000000000    0.0000000000000000   25.0000000000000000
   C    Fe   H    N 
    32     1    16     8
Selective dynamics
Direct
  0.1089975879646067  0.0442322620706413  0.0000000000000000   T   T   T
  0.1641473856448698  0.0278942591385862 -0.0000000000000000   T   T   T
  0.2114806577677557  0.0567047430907183 -0.0000000000000000   T   T   T
  0.2588119513433841  0.0279726419495004 -0.0000000000000000   T   T   T
  0.1089975879646067  0.9557677379293585 -0.0000000000000000   T   T   T
  0.1641473856448698  0.9721057408614139 -0.0000000000000000   T   T   T
  0.2114806577677557  0.9432952569092820  0.0000000000000000   T   T   T
  0.2588119513433841  0.9720273580504993  0.0000000000000000   T   T   T
  0.9557677379293585  0.1089975879646067 -0.0000000000000000   T   T   T
  0.9721057408614139  0.1641473856448698  0.0000000000000000   T   T   T
  0.9432952569092820  0.2114806577677557  0.0000000000000000   T   T   T
  0.9720273580504993  0.2588119513433841  0.0000000000000000   T   T   T
  0.0442322620706413  0.1089975879646067  0.0000000000000000   T   T   T
  0.0278942591385862  0.1641473856448698  0.0000000000000000   T   T   T
  0.0567047430907183  0.2114806577677557 -0.0000000000000000   T   T   T
  0.0279726419495004  0.2588119513433841  0.0000000000000000   T   T   T
  0.0442322620706413  0.8910024120353933  0.0000000000000000   T   T   T
  0.0278942591385862  0.8358526143551303 -0.0000000000000000   T   T   T
  0.0567047430907183  0.7885193422322443 -0.0000000000000000   T   T   T
  0.0279726419495004  0.7411880486566158 -0.0000000000000000   T   T   T
  0.9557677379293585  0.8910024120353933  0.0000000000000000   T   T   T
  0.9721057408614139  0.8358526143551303 -0.0000000000000000   T   T   T
  0.9432952569092820  0.7885193422322443  0.0000000000000000   T   T   T
  0.9720273580504993  0.7411880486566158  0.0000000000000000   T   T   T
  0.8910024120353933  0.9557677379293585 -0.0000000000000000   T   T   T
  0.8358526143551303  0.9721057408614139  0.0000000000000000   T   T   T
  0.7885193422322443  0.9432952569092820  0.0000000000000000   T   T   T
  0.7411880486566158  0.9720273580504993  0.0000000000000000   T   T   T
  0.8910024120353933  0.0442322620706413 -0.0000000000000000   T   T   T
  0.8358526143551303  0.0278942591385862  0.0000000000000000   T   T   T
  0.7885193422322443  0.0567047430907183 -0.0000000000000000   T   T   T
  0.7411880486566158  0.0279726419495004 -0.0000000000000000   T   T   T
  0.0000000000000000 -0.0000000000000000 -0.0000000000000000   T   T   T
  0.2108732238281874  0.1004935381107928 -0.0000000000000000   T   T   T
  0.2970906664685949  0.0492691870293698 -0.0000000000000000   T   T   T
  0.2108732238281874  0.8995064618892071 -0.0000000000000000   T   T   T
  0.2970906664685949  0.9507308129706303 -0.0000000000000000   T   T   T
  0.8995064618892071  0.2108732238281874 -0.0000000000000000   T   T   T
  0.9507308129706303  0.2970906664685949 -0.0000000000000000   T   T   T
  0.1004935381107928  0.2108732238281874 -0.0000000000000000   T   T   T
  0.0492691870293698  0.2970906664685949 -0.0000000000000000   T   T   T
  0.1004935381107928  0.7891267761718127 -0.0000000000000000   T   T   T
  0.0492691870293698  0.7029093335314052 -0.0000000000000000   T   T   T
  0.8995064618892071  0.7891267761718127 -0.0000000000000000   T   T   T
  0.9507308129706303  0.7029093335314052  0.0000000000000000   T   T   T
  0.7891267761718127  0.8995064618892071 -0.0000000000000000   T   T   T
  0.7029093335314052  0.9507308129706303 -0.0000000000000000   T   T   T
  0.7891267761718127  0.1004935381107928 -0.0000000000000000   T   T   T
  0.7029093335314052  0.0492691870293698 -0.0000000000000000   T   T   T
  0.0760010193779555 -0.0000000000000000 -0.0000000000000000   T   T   T
  0.0945024621935635  0.0945024621935635 -0.0000000000000000   T   T   T
  0.0000000000000000  0.0760010193779555 -0.0000000000000000   T   T   T
  0.9054975378064368  0.0945024621935635 -0.0000000000000000   T   T   T
  0.0000000000000000  0.9239989806220444  0.0000000000000000   T   T   T
  0.0945024621935635  0.9054975378064368  0.0000000000000000   T   T   T
  0.9239989806220444 -0.0000000000000000  0.0000000000000000   T   T   T
  0.9054975378064368  0.9054975378064368  0.0000000000000000   T   T   T
 
  0.00000000E+00  0.00000000E+00  0.00000000E+00
  0.00000000E+00  0.00000000E+00  0.00000000E+00
  0.00000000E+00  0.00000000E+00  0.00000000E+00
  0.00000000E+00  0.00000000E+00  0.00000000E+00
  0.00000000E+00  0.00000000E+00  0.00000000E+00
  0.00000000E+00  0.00000000E+00  0.00000000E+00
  0.00000000E+00  0.00000000E+00  0.00000000E+00
  0.00000000E+00  0.00000000E+00  0.00000000E+00
  0.00000000E+00  0.00000000E+00  0.00000000E+00
  0.00000000E+00  0.00000000E+00  0.00000000E+00
  0.00000000E+00  0.00000000E+00  0.00000000E+00
  0.00000000E+00  0.00000000E+00  0.00000000E+00
  0.00000000E+00  0.00000000E+00  0.00000000E+00
  0.00000000E+00  0.00000000E+00  0.00000000E+00
  0.00000000E+00  0.00000000E+00  0.00000000E+00
  0.00000000E+00  0.00000000E+00  0.00000000E+00
  0.00000000E+00  0.00000000E+00  0.00000000E+00
  0.00000000E+00  0.00000000E+00  0.00000000E+00
  0.00000000E+00  0.00000000E+00  0.00000000E+00
  0.00000000E+00  0.00000000E+00  0.00000000E+00
  0.00000000E+00  0.00000000E+00  0.00000000E+00
  0.00000000E+00  0.00000000E+00  0.00000000E+00
  0.00000000E+00  0.00000000E+00  0.00000000E+00
  0.00000000E+00  0.00000000E+00  0.00000000E+00
  0.00000000E+00  0.00000000E+00  0.00000000E+00
  0.00000000E+00  0.00000000E+00  0.00000000E+00
  0.00000000E+00  0.00000000E+00  0.00000000E+00
  0.00000000E+00  0.00000000E+00  0.00000000E+00
  0.00000000E+00  0.00000000E+00  0.00000000E+00
  0.00000000E+00  0.00000000E+00  0.00000000E+00
  0.00000000E+00  0.00000000E+00  0.00000000E+00
  0.00000000E+00  0.00000000E+00  0.00000000E+00
  0.00000000E+00  0.00000000E+00  0.00000000E+00
  0.00000000E+00  0.00000000E+00  0.00000000E+00
  0.00000000E+00  0.00000000E+00  0.00000000E+00
  0.00000000E+00  0.00000000E+00  0.00000000E+00
  0.00000000E+00  0.00000000E+00  0.00000000E+00
  0.00000000E+00  0.00000000E+00  0.00000000E+00
  0.00000000E+00  0.00000000E+00  0.00000000E+00
  0.00000000E+00  0.00000000E+00  0.00000000E+00
  0.00000000E+00  0.00000000E+00  0.00000000E+00
  0.00000000E+00  0.00000000E+00  0.00000000E+00
  0.00000000E+00  0.00000000E+00  0.00000000E+00
  0.00000000E+00  0.00000000E+00  0.00000000E+00
  0.00000000E+00  0.00000000E+00  0.00000000E+00
  0.00000000E+00  0.00000000E+00  0.00000000E+00
  0.00000000E+00  0.00000000E+00  0.00000000E+00
  0.00000000E+00  0.00000000E+00  0.00000000E+00
  0.00000000E+00  0.00000000E+00  0.00000000E+00
  0.00000000E+00  0.00000000E+00  0.00000000E+00
  0.00000000E+00  0.00000000E+00  0.00000000E+00
  0.00000000E+00  0.00000000E+00  0.00000000E+00
  0.00000000E+00  0.00000000E+00  0.00000000E+00
  0.00000000E+00  0.00000000E+00  0.00000000E+00
  0.00000000E+00  0.00000000E+00  0.00000000E+00
  0.00000000E+00  0.00000000E+00  0.00000000E+00
  0.00000000E+00  0.00000000E+00  0.00000000E+00
